(set-logic QF_LIA)
(declare-fun x0 () Int)
(declare-fun x1 () Int)
(declare-fun x2 () Int)
(declare-fun x3 () Int)
(declare-fun x4 () Int)
(declare-fun x5 () Int)
(declare-fun x6 () Int)
(declare-fun x7 () Int)
(declare-fun x8 () Int)
(declare-fun x9 () Int)
(declare-fun A0 () Bool)
(declare-fun A1 () Bool)
(declare-fun A2 () Bool)
(declare-fun A3 () Bool)
(declare-fun A4 () Bool)
(declare-fun A5 () Bool)
(declare-fun A6 () Bool)
(declare-fun A7 () Bool)
(declare-fun A8 () Bool)
(declare-fun A9 () Bool)
(assert (let ((.def_0 (not A0))) (let ((.def_1 (* (- 1) x1))) (let ((.def_2 (< .def_1 1))) (let ((.def_3 (and .def_2 .def_0))) (let ((.def_4 (* 1 x3))) (let ((.def_5 (* 1 x9))) (let ((.def_6 (+ .def_5 .def_4))) (let ((.def_7 (< .def_6 1))) (let ((.def_8 (not .def_7))) (let ((.def_9 (* (- 1) x0))) (let ((.def_10 (+ .def_5 .def_9))) (let ((.def_11 (< .def_10 (- 1)))) (let ((.def_12 (not .def_11))) (let ((.def_13 (and .def_12 .def_8))) (let ((.def_14 (or .def_13 .def_3))) (let ((.def_15 (* 1 x6))) (let ((.def_16 (< .def_15 1))) (let ((.def_17 (not .def_16))) (let ((.def_18 (* (- 1) x3))) (let ((.def_19 (< .def_18 (- 1)))) (let ((.def_20 (and .def_19 .def_17))) (let ((.def_21 (* (- 1) x7))) (let ((.def_22 (* (- 1) x5))) (let ((.def_23 (+ .def_22 .def_21))) (let ((.def_24 (< .def_23 (- 1)))) (let ((.def_25 (not .def_24))) (let ((.def_26 (= .def_25 A8))) (let ((.def_27 (or .def_26 .def_20))) (let ((.def_28 (not .def_27))) (let ((.def_29 (and .def_28 .def_14))) (let ((.def_30 (not A1))) (let ((.def_31 (and .def_30 A4))) (let ((.def_32 (not .def_31))) (let ((.def_33 (< .def_21 1))) (let ((.def_34 (and .def_33 A4))) (let ((.def_35 (not .def_34))) (let ((.def_36 (or .def_35 .def_32))) (let ((.def_37 (* 1 x2))) (let ((.def_38 (< .def_37 (- 1)))) (let ((.def_39 (not .def_38))) (let ((.def_40 (not A4))) (let ((.def_41 (or .def_40 .def_39))) (let ((.def_42 (* (- 1) x4))) (let ((.def_43 (* 1 x5))) (let ((.def_44 (+ .def_43 .def_42))) (let ((.def_45 (< .def_44 (- 1)))) (let ((.def_46 (not .def_45))) (let ((.def_47 (not A5))) (let ((.def_48 (and .def_47 .def_46))) (let ((.def_49 (not .def_48))) (let ((.def_50 (or .def_49 .def_41))) (let ((.def_51 (or .def_50 .def_36))) (let ((.def_52 (and .def_51 .def_29))) (let ((.def_53 (* (- 1) x6))) (let ((.def_54 (< .def_53 (- 1)))) (let ((.def_55 (not .def_54))) (let ((.def_56 (and A6 .def_55))) (let ((.def_57 (not .def_56))) (let ((.def_58 (+ .def_42 .def_43))) (let ((.def_59 (< .def_58 1))) (let ((.def_60 (= .def_0 .def_59))) (let ((.def_61 (or .def_60 .def_57))) (let ((.def_62 (not .def_61))) (let ((.def_63 (* 1 x7))) (let ((.def_64 (+ .def_9 .def_63))) (let ((.def_65 (< .def_64 (- 1)))) (let ((.def_66 (< .def_18 1))) (let ((.def_67 (not .def_66))) (let ((.def_68 (or .def_67 .def_65))) (let ((.def_69 (* 1 x1))) (let ((.def_70 (+ .def_69 .def_18))) (let ((.def_71 (< .def_70 1))) (let ((.def_72 (< .def_63 1))) (let ((.def_73 (not .def_72))) (let ((.def_74 (or .def_73 .def_71))) (let ((.def_75 (not .def_74))) (let ((.def_76 (or .def_75 .def_68))) (let ((.def_77 (or .def_76 .def_62))) (let ((.def_78 (< .def_42 (- 1)))) (let ((.def_79 (not .def_78))) (let ((.def_80 (or .def_79 A7))) (let ((.def_81 (+ .def_63 .def_1))) (let ((.def_82 (< .def_81 (- 1)))) (let ((.def_83 (not .def_82))) (let ((.def_84 (not A2))) (let ((.def_85 (and .def_84 .def_83))) (let ((.def_86 (not .def_85))) (let ((.def_87 (or .def_86 .def_80))) (let ((.def_88 (* 1 x8))) (let ((.def_89 (+ .def_42 .def_88))) (let ((.def_90 (< .def_89 (- 1)))) (let ((.def_91 (= A7 .def_90))) (let ((.def_92 (not .def_91))) (let ((.def_93 (< .def_21 (- 1)))) (let ((.def_94 (or .def_93 A4))) (let ((.def_95 (not .def_94))) (let ((.def_96 (or .def_95 .def_92))) (let ((.def_97 (not .def_96))) (let ((.def_98 (or .def_97 .def_87))) (let ((.def_99 (or .def_98 .def_77))) (let ((.def_100 (not .def_99))) (let ((.def_101 (and .def_100 .def_52))) (let ((.def_102 (and A3 A3))) (let ((.def_103 (not .def_102))) (let ((.def_104 (* 1 x0))) (let ((.def_105 (< .def_104 1))) (let ((.def_106 (not .def_105))) (let ((.def_107 (and A8 .def_106))) (let ((.def_108 (not .def_107))) (let ((.def_109 (and .def_108 .def_103))) (let ((.def_110 (+ .def_42 .def_37))) (let ((.def_111 (< .def_110 1))) (let ((.def_112 (and .def_111 A0))) (let ((.def_113 (not .def_112))) (let ((.def_114 (* (- 1) x8))) (let ((.def_115 (< .def_114 1))) (let ((.def_116 (not .def_115))) (let ((.def_117 (< .def_9 1))) (let ((.def_118 (or .def_117 .def_116))) (let ((.def_119 (= .def_118 .def_113))) (let ((.def_120 (and .def_119 .def_109))) (let ((.def_121 (not .def_120))) (let ((.def_122 (+ .def_22 .def_53))) (let ((.def_123 (< .def_122 (- 1)))) (let ((.def_124 (not .def_123))) (let ((.def_125 (not A7))) (let ((.def_126 (and .def_125 .def_124))) (let ((.def_127 (and .def_0 A1))) (let ((.def_128 (and .def_127 .def_126))) (let ((.def_129 (+ .def_15 .def_69))) (let ((.def_130 (< .def_129 1))) (let ((.def_131 (or .def_130 .def_40))) (let ((.def_132 (+ .def_63 .def_15))) (let ((.def_133 (< .def_132 1))) (let ((.def_134 (not .def_133))) (let ((.def_135 (and .def_134 .def_2))) (let ((.def_136 (or .def_135 .def_131))) (let ((.def_137 (not .def_136))) (let ((.def_138 (and .def_137 .def_128))) (let ((.def_139 (and .def_138 .def_121))) (let ((.def_140 (* (- 1) x9))) (let ((.def_141 (< .def_140 (- 1)))) (let ((.def_142 (and .def_141 A7))) (let ((.def_143 (not .def_142))) (let ((.def_144 (< .def_88 1))) (let ((.def_145 (not .def_144))) (let ((.def_146 (and .def_145 .def_55))) (let ((.def_147 (not .def_146))) (let ((.def_148 (or .def_147 .def_143))) (let ((.def_149 (not .def_148))) (let ((.def_150 (* 1 x4))) (let ((.def_151 (+ .def_43 .def_150))) (let ((.def_152 (< .def_151 (- 1)))) (let ((.def_153 (not .def_152))) (let ((.def_154 (or .def_153 .def_40))) (let ((.def_155 (< .def_15 (- 1)))) (let ((.def_156 (not .def_155))) (let ((.def_157 (and A8 .def_156))) (let ((.def_158 (not .def_157))) (let ((.def_159 (and .def_158 .def_154))) (let ((.def_160 (or .def_159 .def_149))) (let ((.def_161 (not .def_160))) (let ((.def_162 (or A5 A2))) (let ((.def_163 (or .def_115 .def_30))) (let ((.def_164 (not .def_163))) (let ((.def_165 (or .def_164 .def_162))) (let ((.def_166 (< .def_53 1))) (let ((.def_167 (and A1 .def_166))) (let ((.def_168 (+ .def_21 .def_88))) (let ((.def_169 (< .def_168 1))) (let ((.def_170 (and .def_169 A5))) (let ((.def_171 (= .def_170 .def_167))) (let ((.def_172 (and .def_171 .def_165))) (let ((.def_173 (not .def_172))) (let ((.def_174 (and .def_173 .def_161))) (let ((.def_175 (or .def_174 .def_139))) (let ((.def_176 (not .def_175))) (let ((.def_177 (or .def_176 .def_101))) (let ((.def_178 (not .def_177))) (let ((.def_179 (+ .def_1 .def_140))) (let ((.def_180 (< .def_179 1))) (let ((.def_181 (not .def_180))) (let ((.def_182 (or .def_181 A1))) (let ((.def_183 (not .def_182))) (let ((.def_184 (or .def_111 .def_40))) (let ((.def_185 (not .def_184))) (let ((.def_186 (and .def_185 .def_183))) (let ((.def_187 (not .def_186))) (let ((.def_188 (and .def_106 A6))) (let ((.def_189 (< .def_22 (- 1)))) (let ((.def_190 (not .def_189))) (let ((.def_191 (and .def_190 A3))) (let ((.def_192 (and .def_191 .def_188))) (let ((.def_193 (or .def_192 .def_187))) (let ((.def_194 (not .def_193))) (let ((.def_195 (not A6))) (let ((.def_196 (and A9 .def_195))) (let ((.def_197 (+ .def_63 .def_37))) (let ((.def_198 (< .def_197 1))) (let ((.def_199 (+ .def_5 .def_37))) (let ((.def_200 (< .def_199 (- 1)))) (let ((.def_201 (and .def_200 .def_198))) (let ((.def_202 (not .def_201))) (let ((.def_203 (or .def_202 .def_196))) (let ((.def_204 (not .def_203))) (let ((.def_205 (< .def_140 1))) (let ((.def_206 (not .def_205))) (let ((.def_207 (and A1 .def_206))) (let ((.def_208 (* (- 1) x2))) (let ((.def_209 (+ .def_104 .def_208))) (let ((.def_210 (< .def_209 (- 1)))) (let ((.def_211 (not .def_210))) (let ((.def_212 (or A5 .def_211))) (let ((.def_213 (or .def_212 .def_207))) (let ((.def_214 (not .def_213))) (let ((.def_215 (or .def_214 .def_204))) (let ((.def_216 (or .def_215 .def_194))) (let ((.def_217 (and .def_54 A3))) (let ((.def_218 (< .def_70 (- 1)))) (let ((.def_219 (or .def_218 A5))) (let ((.def_220 (not .def_219))) (let ((.def_221 (or .def_220 .def_217))) (let ((.def_222 (not .def_221))) (let ((.def_223 (and .def_125 .def_0))) (let ((.def_224 (not .def_223))) (let ((.def_225 (+ .def_1 .def_104))) (let ((.def_226 (< .def_225 1))) (let ((.def_227 (not .def_226))) (let ((.def_228 (or .def_40 .def_227))) (let ((.def_229 (or .def_228 .def_224))) (let ((.def_230 (and .def_229 .def_222))) (let ((.def_231 (not .def_230))) (let ((.def_232 (not A3))) (let ((.def_233 (< .def_69 (- 1)))) (let ((.def_234 (and .def_233 .def_232))) (let ((.def_235 (+ .def_42 .def_4))) (let ((.def_236 (< .def_235 1))) (let ((.def_237 (or .def_125 .def_236))) (let ((.def_238 (not .def_237))) (let ((.def_239 (and .def_238 .def_234))) (let ((.def_240 (or .def_30 .def_166))) (let ((.def_241 (not .def_240))) (let ((.def_242 (< .def_88 (- 1)))) (let ((.def_243 (not .def_242))) (let ((.def_244 (or .def_243 .def_0))) (let ((.def_245 (not .def_244))) (let ((.def_246 (or .def_245 .def_241))) (let ((.def_247 (and .def_246 .def_239))) (let ((.def_248 (and .def_247 .def_231))) (let ((.def_249 (and .def_248 .def_216))) (let ((.def_250 (not .def_249))) (let ((.def_251 (+ .def_88 .def_104))) (let ((.def_252 (< .def_251 1))) (let ((.def_253 (not .def_252))) (let ((.def_254 (+ .def_4 .def_53))) (let ((.def_255 (< .def_254 (- 1)))) (let ((.def_256 (or .def_255 .def_253))) (let ((.def_257 (= .def_190 .def_38))) (let ((.def_258 (or .def_257 .def_256))) (let ((.def_259 (not .def_258))) (let ((.def_260 (< .def_4 1))) (let ((.def_261 (or A1 .def_260))) (let ((.def_262 (not .def_261))) (let ((.def_263 (+ .def_69 .def_5))) (let ((.def_264 (< .def_263 (- 1)))) (let ((.def_265 (not .def_264))) (let ((.def_266 (or .def_265 A9))) (let ((.def_267 (not .def_266))) (let ((.def_268 (or .def_267 .def_262))) (let ((.def_269 (or .def_268 .def_259))) (let ((.def_270 (< .def_208 1))) (let ((.def_271 (or .def_270 .def_106))) (let ((.def_272 (not A9))) (let ((.def_273 (= A9 .def_272))) (let ((.def_274 (not .def_273))) (let ((.def_275 (and .def_274 .def_271))) (let ((.def_276 (not .def_141))) (let ((.def_277 (or .def_276 .def_84))) (let ((.def_278 (not .def_277))) (let ((.def_279 (or A4 A8))) (let ((.def_280 (or .def_279 .def_278))) (let ((.def_281 (and .def_280 .def_275))) (let ((.def_282 (not .def_281))) (let ((.def_283 (or .def_282 .def_269))) (let ((.def_284 (not .def_283))) (let ((.def_285 (+ .def_21 .def_43))) (let ((.def_286 (< .def_285 1))) (let ((.def_287 (not .def_286))) (let ((.def_288 (or .def_30 .def_287))) (let ((.def_289 (not .def_288))) (let ((.def_290 (+ .def_140 .def_114))) (let ((.def_291 (< .def_290 (- 1)))) (let ((.def_292 (not .def_291))) (let ((.def_293 (and .def_232 .def_292))) (let ((.def_294 (not .def_293))) (let ((.def_295 (and .def_294 .def_289))) (let ((.def_296 (not .def_260))) (let ((.def_297 (or .def_296 A0))) (let ((.def_298 (+ .def_42 .def_208))) (let ((.def_299 (< .def_298 1))) (let ((.def_300 (not .def_299))) (let ((.def_301 (and .def_300 A2))) (let ((.def_302 (or .def_301 .def_297))) (let ((.def_303 (not .def_302))) (let ((.def_304 (and .def_303 .def_295))) (let ((.def_305 (not .def_304))) (let ((.def_306 (+ .def_22 .def_63))) (let ((.def_307 (< .def_306 1))) (let ((.def_308 (and .def_272 .def_307))) (let ((.def_309 (not .def_308))) (let ((.def_310 (and A5 A7))) (let ((.def_311 (not .def_310))) (let ((.def_312 (and .def_311 .def_309))) (let ((.def_313 (not .def_312))) (let ((.def_314 (and .def_180 .def_72))) (let ((.def_315 (+ .def_42 .def_18))) (let ((.def_316 (< .def_315 1))) (let ((.def_317 (or .def_316 .def_17))) (let ((.def_318 (not .def_317))) (let ((.def_319 (and .def_318 .def_314))) (let ((.def_320 (and .def_319 .def_313))) (let ((.def_321 (or .def_320 .def_305))) (let ((.def_322 (or .def_321 .def_284))) (let ((.def_323 (or .def_322 .def_250))) (let ((.def_324 (and .def_323 .def_178))) (let ((.def_325 (<= x9 1))) (let ((.def_326 (<= 0 x9))) (let ((.def_327 (<= x8 1))) (let ((.def_328 (<= 0 x8))) (let ((.def_329 (<= x7 1))) (let ((.def_330 (<= 0 x7))) (let ((.def_331 (<= x6 1))) (let ((.def_332 (<= 0 x6))) (let ((.def_333 (<= x5 1))) (let ((.def_334 (<= 0 x5))) (let ((.def_335 (<= x4 1))) (let ((.def_336 (<= 0 x4))) (let ((.def_337 (<= x3 1))) (let ((.def_338 (<= 0 x3))) (let ((.def_339 (<= x2 1))) (let ((.def_340 (<= 0 x2))) (let ((.def_341 (<= x1 1))) (let ((.def_342 (<= 0 x1))) (let ((.def_343 (<= x0 1))) (let ((.def_344 (<= 0 x0))) (let ((.def_345 (and .def_344 .def_343 .def_342 .def_341 .def_340 .def_339 .def_338 .def_337 .def_336 .def_335 .def_334 .def_333 .def_332 .def_331 .def_330 .def_329 .def_328 .def_327 .def_326 .def_325 .def_324))) .def_345)))))))))))))))))))))))))))))))))))))))))))))))))))))))))))))))))))))))))))))))))))))))))))))))))))))))))))))))))))))))))))))))))))))))))))))))))))))))))))))))))))))))))))))))))))))))))))))))))))))))))))))))))))))))))))))))))))))))))))))))))))))))))))))))))))))))))))))))))))))))))))))))))))))))))))))))))))))))))))))))))))))))))))))))))))))))))))
(check-sat)
